job_count = 32 ;
duration = [|16, 11, 9|29, 5, 1|12, 3, 6|14, 10, 6|21, 11, 4|11, 2, 7|25, 16, 7|7, 3, 7|8, 19, 1|20, 5, 5|27, 3, 1|18, 14, 3|19, 19, 5|20, 16, 7|11, 3, 5|18, 11, 7|8, 18, 5|18, 11, 9|13, 2, 6|17, 4, 7|7, 6, 7|23, 8, 2|29, 4, 4|4, 15, 3|5, 5, 6|27, 3, 1|29, 19, 4|11, 15, 1|29, 19, 9|23, 16, 5|17, 13, 3|11, 12, 3|] ;
machine_count = 3 ;
cost = [|18, 22, 35|12, 36, 58|16, 28, 57|11, 39, 53|11, 23, 46|10, 27, 45|17, 21, 58|11, 30, 43|11, 38, 46|13, 35, 54|13, 20, 45|16, 36, 37|13, 38, 46|12, 38, 51|17, 34, 38|16, 29, 55|16, 28, 37|10, 31, 55|12, 35, 41|12, 39, 51|18, 37, 56|13, 30, 42|15, 27, 37|12, 32, 33|18, 30, 33|17, 31, 37|15, 33, 39|19, 36, 34|18, 29, 54|16, 29, 34|15, 29, 30|12, 31, 37|] ;
deadline = [71, 71, 71, 71, 71, 71, 71, 71, 71, 71, 71, 71, 71, 71, 71, 71, 71, 71, 71, 71, 71, 71, 71, 71, 71, 71, 71, 71, 71, 71, 71, 71] ;
release = [0, 0, 0, 0, 0, 0, 0, 0, 0, 0, 0, 0, 0, 0, 0, 0, 0, 0, 0, 0, 0, 0, 0, 0, 0, 0, 0, 0, 0, 0, 0, 0] ;
resource = [|4, 4, 4|4, 4, 4|9, 9, 9|8, 8, 8|1, 1, 1|3, 3, 3|2, 2, 2|9, 9, 9|2, 2, 2|2, 2, 2|5, 5, 5|9, 9, 9|6, 6, 6|8, 8, 8|2, 2, 2|4, 4, 4|4, 4, 4|9, 9, 9|3, 3, 3|3, 3, 3|9, 9, 9|1, 1, 1|5, 5, 5|5, 5, 5|6, 6, 6|8, 8, 8|1, 1, 1|8, 8, 8|1, 1, 1|4, 4, 4|1, 1, 1|2, 2, 2|] ;
capacities = [10, 10, 10] ;
